    1C
    1UUSER                                                              
    1UDATE              31.december.2013                                
    1UTIME              00:47:01                                        
    1UHOST                                                              
    1UPGM               CalculiX                                        
    1UDIR                                                               
    1UDBN                                                               
    2C                            20                                     1
 -1         4-1.00000E+00 1.00000E+00 0.00000E+00
 -1         5-1.00000E+00-1.00000E+00 0.00000E+00
 -1         6 1.00000E+00-1.00000E+00 0.00000E+00
 -1         7 1.00000E+00 1.00000E+00 0.00000E+00
 -1         8-1.00000E+00 0.00000E+00 0.00000E+00
 -1         9 0.00000E+00-1.00000E+00 0.00000E+00
 -1        10 1.00000E+00 0.00000E+00 0.00000E+00
 -1        11 0.00000E+00 1.00000E+00 0.00000E+00
 -1        12-1.00000E+00 1.00000E+00 5.00000E+01
 -1        13-1.00000E+00-1.00000E+00 5.00000E+01
 -1        14 1.00000E+00-1.00000E+00 5.00000E+01
 -1        15 1.00000E+00 1.00000E+00 5.00000E+01
 -1        20-1.00000E+00 1.00000E+00 1.00000E+02
 -1        21-1.00000E+00-1.00000E+00 1.00000E+02
 -1        22 1.00000E+00-1.00000E+00 1.00000E+02
 -1        23 1.00000E+00 1.00000E+00 1.00000E+02
 -1        24-1.00000E+00 0.00000E+00 1.00000E+02
 -1        25 0.00000E+00-1.00000E+00 1.00000E+02
 -1        26 1.00000E+00 0.00000E+00 1.00000E+02
 -1        27 0.00000E+00 1.00000E+00 1.00000E+02
 -3
    3C                             1                                     1
 -1         1    4    0ALUM 
 -2         4        20        21         5         7        23        22         6        12        24
 -2        13         8        11        27        25         9        15        26        14        10
 -3
    1PSTEP                         1           1           1          
  100CL  101 1.000000000          20                     0    1           1
 -4  DISP        4    1
 -5  D1          1    2    1    0
 -5  D2          1    2    2    0
 -5  D3          1    2    3    0
 -5  ALL         1    2    0    0    1ALL
 -1         4 1.77202E+00-6.01489E-05-3.53733E-02
 -1         5 1.77202E+00 6.01360E-05-3.53733E-02
 -1         6 1.77202E+00-6.01489E-05 3.53733E-02
 -1         7 1.77202E+00 6.01359E-05 3.53733E-02
 -1         8 1.77210E+00-6.48999E-09-3.53740E-02
 -1         9 1.77194E+00-6.49562E-09 1.29607E-10
 -1        10 1.77210E+00-6.50009E-09 3.53740E-02
 -1        11 1.77194E+00-6.49562E-09-1.29703E-10
 -1        12 4.43839E-01-1.28769E-04-1.77269E-02
 -1        13 4.43839E-01 1.28766E-04-1.77269E-02
 -1        14 4.43839E-01-1.28769E-04 1.77269E-02
 -1        15 4.43839E-01 1.28766E-04 1.77269E-02
 -1        20-2.66132E-16-7.23304E-16 0.00000E+00
 -1        21-2.66132E-16 7.23304E-16 0.00000E+00
 -1        22 2.66132E-16 7.23304E-16 0.00000E+00
 -1        23 2.66132E-16-7.23304E-16 0.00000E+00
 -1        24-2.66132E-16 0.00000E+00 0.00000E+00
 -1        25 0.00000E+00 7.23304E-16 0.00000E+00
 -1        26 2.66132E-16 0.00000E+00 0.00000E+00
 -1        27 0.00000E+00-7.23304E-16 0.00000E+00
 -3
    1PSTEP                         2           1           1          
  100CL  101 1.000000000          20                     0    1           1
 -4  STRESS      6    1
 -5  SXX         1    4    1    1
 -5  SYY         1    4    2    2
 -5  SZZ         1    4    3    3
 -5  SXY         1    4    1    2
 -5  SYZ         1    4    2    3
 -5  SZX         1    4    3    1
 -1         4-4.56412E+00 3.04333E+00 3.47563E+01-3.78844E+00-7.91049E-02-1.29860E+00
 -1         5-4.56412E+00 3.04333E+00 3.47563E+01 3.78844E+00 7.91049E-02-1.29860E+00
 -1         6 4.56412E+00-3.04333E+00-3.47563E+01 3.78844E+00-7.91049E-02-1.29860E+00
 -1         7 4.56412E+00-3.04333E+00-3.47563E+01-3.78844E+00 7.91049E-02-1.29860E+00
 -1         8-4.56375E+00 3.04370E+00 3.47571E+01-1.39085E-08 2.49381E-09-1.30433E+00
 -1         9-1.12907E-08 1.67777E-08-1.27355E-07 3.78844E+00 4.85696E-09-1.26804E+00
 -1        10 4.56375E+00-3.04370E+00-3.47571E+01 1.39514E-08 6.95335E-09-1.30433E+00
 -1        11 1.14809E-08-1.65501E-08 1.27570E-07-3.78844E+00 4.85514E-09-1.26804E+00
 -1        12 2.27428E+00-1.51402E+00 3.56016E+01 1.90179E+00 4.79337E-02 2.57689E-01
 -1        13 2.27428E+00-1.51402E+00 3.56016E+01-1.90179E+00-4.79337E-02 2.57689E-01
 -1        14-2.27428E+00 1.51402E+00-3.56016E+01-1.90179E+00 4.79337E-02 2.57689E-01
 -1        15-2.27428E+00 1.51402E+00-3.56016E+01 1.90179E+00-4.79337E-02 2.57689E-01
 -1        20 2.05007E+01 2.05007E+01 4.78349E+01 1.87099E-05 1.74972E-01-1.28206E+00
 -1        21 2.05007E+01 2.05007E+01 4.78349E+01-1.87099E-05-1.74972E-01-1.28206E+00
 -1        22-2.05007E+01-2.05007E+01-4.78349E+01-1.87099E-05 1.74972E-01-1.28206E+00
 -1        23-2.05007E+01-2.05007E+01-4.78349E+01 1.87099E-05-1.74972E-01-1.28206E+00
 -1        24 2.05011E+01 2.05010E+01 4.78358E+01-2.46081E-12 3.16057E-09-1.31260E+00
 -1        25-7.51329E-08-7.52073E-08-1.75317E-07-1.87186E-05 5.04153E-09-1.25151E+00
 -1        26-2.05011E+01-2.05010E+01-4.78358E+01-3.11162E-12 6.47287E-09-1.31260E+00
 -1        27 7.51449E-08 7.50872E-08 1.75386E-07 1.87185E-05 5.03956E-09-1.25151E+00
 -3
 9999
